data/lp_files/pEFS/36_8.lp
\ Model foo
\ LP format - for model browsing. Use MPS format to capture full model detail.
Minimize
  z
Subject To
 allocateEach[1]: x[1,1] + x[2,1] = 1
 allocateEach[2]: x[1,2] + x[2,2] = 1
 allocateEach[3]: x[1,3] + x[2,3] = 1
 allocateEach[4]: x[1,4] + x[2,4] = 1
 allocateEach[5]: x[1,5] + x[2,5] = 1
 allocateEach[6]: x[1,6] + x[2,6] = 1
 allocateEach[7]: x[1,7] + x[2,7] = 1
 allocateEach[8]: x[1,8] + x[2,8] = 1
 allocateEach[9]: x[1,9] + x[2,9] = 1
 allocateEach[10]: x[1,10] + x[2,10] = 1
 allocateEach[11]: x[1,11] + x[2,11] = 1
 allocateEach[12]: x[1,12] + x[2,12] = 1
 allocateEach[13]: x[1,13] + x[2,13] = 1
 allocateEach[14]: x[1,14] + x[2,14] = 1
 allocateEach[15]: x[1,15] + x[2,15] = 1
 allocateEach[16]: x[1,16] + x[2,16] = 1
 allocateAllCash: cashProportion[1] + cashProportion[2] = 1
 findWorstP[1,2]: z + 0.1067976718107545 cashProportion[1]
   - 0.1067976718107545 cashProportion[2] + 0.00471244726864954 x[1,1]
   + 0.0233486409996262 x[1,2] + 0.1284242003524323 x[1,3]
   + 0.1174507395738773 x[1,4] + 0.0250707534575746 x[1,5]
   + 0.0363112084156565 x[1,6] + 0.0582180808458376 x[1,7]
   + 0.0360041651092006 x[1,8] + 0.1115768676242858 x[1,9]
   + 0.0826480482725477 x[1,10] + 0.0746382228867411 x[1,11]
   + 0.00435200512628825 x[1,12] + 0.0865595130026165 x[1,13]
   + 0.00491269290329471 x[1,14] + 0.0163667432049981 x[1,15]
   + 0.0826079991456186 x[1,16] - 0.00471244726864954 x[2,1]
   - 0.0233486409996262 x[2,2] - 0.1284242003524323 x[2,3]
   - 0.1174507395738773 x[2,4] - 0.0250707534575746 x[2,5]
   - 0.0363112084156565 x[2,6] - 0.0582180808458376 x[2,7]
   - 0.0360041651092006 x[2,8] - 0.1115768676242858 x[2,9]
   - 0.0826480482725477 x[2,10] - 0.0746382228867411 x[2,11]
   - 0.00435200512628825 x[2,12] - 0.0865595130026165 x[2,13]
   - 0.00491269290329471 x[2,14] - 0.0163667432049981 x[2,15]
   - 0.0826079991456186 x[2,16] >= 0
 findWorstP[2,1]: z - 0.0894634430006039 cashProportion[1]
   + 0.0894634430006039 cashProportion[2] - 0.0633401176444276 x[1,1]
   - 0.0315358636577129 x[1,2] - 0.094965444745141 x[1,3]
   - 0.0430319160832905 x[1,4] - 0.0794211715237861 x[1,5]
   - 0.1002102390910514 x[1,6] - 0.0777213661067746 x[1,7]
   - 0.0710787054639798 x[1,8] - 0.0610028851960368 x[1,9]
   - 0.0304063876898302 x[1,10] - 0.0469459417145669 x[1,11]
   - 0.0255418129766724 x[1,12] - 0.0874728813938404 x[1,13]
   - 0.0421596475140346 x[1,14] - 0.0356176332446154 x[1,15]
   - 0.0200845429536356 x[1,16] + 0.0633401176444276 x[2,1]
   + 0.0315358636577129 x[2,2] + 0.094965444745141 x[2,3]
   + 0.0430319160832905 x[2,4] + 0.0794211715237861 x[2,5]
   + 0.1002102390910514 x[2,6] + 0.0777213661067746 x[2,7]
   + 0.0710787054639798 x[2,8] + 0.0610028851960368 x[2,9]
   + 0.0304063876898302 x[2,10] + 0.0469459417145669 x[2,11]
   + 0.0255418129766724 x[2,12] + 0.0874728813938404 x[2,13]
   + 0.0421596475140346 x[2,14] + 0.0356176332446154 x[2,15]
   + 0.0200845429536356 x[2,16] >= 0
Bounds
 z <= 1
 -infinity <= cashProportion[1] <= 1
 -infinity <= cashProportion[2] <= 1
Binaries
 x[1,1] x[1,2] x[1,3] x[1,4] x[1,5] x[1,6] x[1,7] x[1,8] x[1,9] x[1,10]
 x[1,11] x[1,12] x[1,13] x[1,14] x[1,15] x[1,16] x[2,1] x[2,2] x[2,3]
 x[2,4] x[2,5] x[2,6] x[2,7] x[2,8] x[2,9] x[2,10] x[2,11] x[2,12] x[2,13]
 x[2,14] x[2,15] x[2,16]
End
