data/mps_files/pEFS/36_8.mps
NAME foo
ROWS
 N  OBJ
 E  allocateEach[1]
 E  allocateEach[2]
 E  allocateEach[3]
 E  allocateEach[4]
 E  allocateEach[5]
 E  allocateEach[6]
 E  allocateEach[7]
 E  allocateEach[8]
 E  allocateEach[9]
 E  allocateEach[10]
 E  allocateEach[11]
 E  allocateEach[12]
 E  allocateEach[13]
 E  allocateEach[14]
 E  allocateEach[15]
 E  allocateEach[16]
 E  allocateAllCash
 G  findWorstP[1,2]
 G  findWorstP[2,1]
COLUMNS
    z         OBJ       1
    z         findWorstP[1,2]  1
    z         findWorstP[2,1]  1
    cashProportion[1]  allocateAllCash  1
    cashProportion[1]  findWorstP[1,2]  1.0679767181075454e-01
    cashProportion[1]  findWorstP[2,1]  -0.0894634430006039
    cashProportion[2]  allocateAllCash  1
    cashProportion[2]  findWorstP[1,2]  -1.0679767181075454e-01
    cashProportion[2]  findWorstP[2,1]  0.0894634430006039
    MARKER    'MARKER'                 'INTORG'
    x[1,1]    allocateEach[1]  1
    x[1,1]    findWorstP[1,2]  4.7124472686495434e-03
    x[1,1]    findWorstP[2,1]  -6.3340117644427554e-02
    x[1,2]    allocateEach[2]  1
    x[1,2]    findWorstP[1,2]  2.3348640999626209e-02
    x[1,2]    findWorstP[2,1]  -3.1535863657712868e-02
    x[1,3]    allocateEach[3]  1
    x[1,3]    findWorstP[1,2]  1.2842420035243232e-01
    x[1,3]    findWorstP[2,1]  -9.4965444745141014e-02
    x[1,4]    allocateEach[4]  1
    x[1,4]    findWorstP[1,2]  1.1745073957387729e-01
    x[1,4]    findWorstP[2,1]  -4.3031916083290461e-02
    x[1,5]    allocateEach[5]  1
    x[1,5]    findWorstP[1,2]  2.5070753457574625e-02
    x[1,5]    findWorstP[2,1]  -0.0794211715237861
    x[1,6]    allocateEach[6]  1
    x[1,6]    findWorstP[1,2]  3.6311208415656542e-02
    x[1,6]    findWorstP[2,1]  -1.0021023909105142e-01
    x[1,7]    allocateEach[7]  1
    x[1,7]    findWorstP[1,2]  5.8218080845837558e-02
    x[1,7]    findWorstP[2,1]  -7.7721366106774617e-02
    x[1,8]    allocateEach[8]  1
    x[1,8]    findWorstP[1,2]  3.6004165109200618e-02
    x[1,8]    findWorstP[2,1]  -7.1078705463979791e-02
    x[1,9]    allocateEach[9]  1
    x[1,9]    findWorstP[1,2]  1.1157686762428579e-01
    x[1,9]    findWorstP[2,1]  -6.1002885196036770e-02
    x[1,10]   allocateEach[10]  1
    x[1,10]   findWorstP[1,2]  8.2648048272547653e-02
    x[1,10]   findWorstP[2,1]  -3.0406387689830242e-02
    x[1,11]   allocateEach[11]  1
    x[1,11]   findWorstP[1,2]  7.4638222886741074e-02
    x[1,11]   findWorstP[2,1]  -4.6945941714566890e-02
    x[1,12]   allocateEach[12]  1
    x[1,12]   findWorstP[1,2]  4.3520051262882463e-03
    x[1,12]   findWorstP[2,1]  -2.5541812976672407e-02
    x[1,13]   allocateEach[13]  1
    x[1,13]   findWorstP[1,2]  8.6559513002616537e-02
    x[1,13]   findWorstP[2,1]  -8.7472881393840449e-02
    x[1,14]   allocateEach[14]  1
    x[1,14]   findWorstP[1,2]  4.9126929032947079e-03
    x[1,14]   findWorstP[2,1]  -4.2159647514034580e-02
    x[1,15]   allocateEach[15]  1
    x[1,15]   findWorstP[1,2]  1.6366743204998133e-02
    x[1,15]   findWorstP[2,1]  -3.5617633244615421e-02
    x[1,16]   allocateEach[16]  1
    x[1,16]   findWorstP[1,2]  8.2607999145618630e-02
    x[1,16]   findWorstP[2,1]  -2.0084542953635574e-02
    x[2,1]    allocateEach[1]  1
    x[2,1]    findWorstP[1,2]  -4.7124472686495434e-03
    x[2,1]    findWorstP[2,1]  6.3340117644427554e-02
    x[2,2]    allocateEach[2]  1
    x[2,2]    findWorstP[1,2]  -2.3348640999626209e-02
    x[2,2]    findWorstP[2,1]  3.1535863657712868e-02
    x[2,3]    allocateEach[3]  1
    x[2,3]    findWorstP[1,2]  -1.2842420035243232e-01
    x[2,3]    findWorstP[2,1]  9.4965444745141014e-02
    x[2,4]    allocateEach[4]  1
    x[2,4]    findWorstP[1,2]  -1.1745073957387729e-01
    x[2,4]    findWorstP[2,1]  4.3031916083290461e-02
    x[2,5]    allocateEach[5]  1
    x[2,5]    findWorstP[1,2]  -2.5070753457574625e-02
    x[2,5]    findWorstP[2,1]  0.0794211715237861
    x[2,6]    allocateEach[6]  1
    x[2,6]    findWorstP[1,2]  -3.6311208415656542e-02
    x[2,6]    findWorstP[2,1]  1.0021023909105142e-01
    x[2,7]    allocateEach[7]  1
    x[2,7]    findWorstP[1,2]  -5.8218080845837558e-02
    x[2,7]    findWorstP[2,1]  7.7721366106774617e-02
    x[2,8]    allocateEach[8]  1
    x[2,8]    findWorstP[1,2]  -3.6004165109200618e-02
    x[2,8]    findWorstP[2,1]  7.1078705463979791e-02
    x[2,9]    allocateEach[9]  1
    x[2,9]    findWorstP[1,2]  -1.1157686762428579e-01
    x[2,9]    findWorstP[2,1]  6.1002885196036770e-02
    x[2,10]   allocateEach[10]  1
    x[2,10]   findWorstP[1,2]  -8.2648048272547653e-02
    x[2,10]   findWorstP[2,1]  3.0406387689830242e-02
    x[2,11]   allocateEach[11]  1
    x[2,11]   findWorstP[1,2]  -7.4638222886741074e-02
    x[2,11]   findWorstP[2,1]  4.6945941714566890e-02
    x[2,12]   allocateEach[12]  1
    x[2,12]   findWorstP[1,2]  -4.3520051262882463e-03
    x[2,12]   findWorstP[2,1]  2.5541812976672407e-02
    x[2,13]   allocateEach[13]  1
    x[2,13]   findWorstP[1,2]  -8.6559513002616537e-02
    x[2,13]   findWorstP[2,1]  8.7472881393840449e-02
    x[2,14]   allocateEach[14]  1
    x[2,14]   findWorstP[1,2]  -4.9126929032947079e-03
    x[2,14]   findWorstP[2,1]  4.2159647514034580e-02
    x[2,15]   allocateEach[15]  1
    x[2,15]   findWorstP[1,2]  -1.6366743204998133e-02
    x[2,15]   findWorstP[2,1]  3.5617633244615421e-02
    x[2,16]   allocateEach[16]  1
    x[2,16]   findWorstP[1,2]  -8.2607999145618630e-02
    x[2,16]   findWorstP[2,1]  2.0084542953635574e-02
    MARKER    'MARKER'                 'INTEND'
RHS
    RHS1      allocateEach[1]  1
    RHS1      allocateEach[2]  1
    RHS1      allocateEach[3]  1
    RHS1      allocateEach[4]  1
    RHS1      allocateEach[5]  1
    RHS1      allocateEach[6]  1
    RHS1      allocateEach[7]  1
    RHS1      allocateEach[8]  1
    RHS1      allocateEach[9]  1
    RHS1      allocateEach[10]  1
    RHS1      allocateEach[11]  1
    RHS1      allocateEach[12]  1
    RHS1      allocateEach[13]  1
    RHS1      allocateEach[14]  1
    RHS1      allocateEach[15]  1
    RHS1      allocateEach[16]  1
    RHS1      allocateAllCash  1
BOUNDS
 UP BND1      z         1
 MI BND1      cashProportion[1]
 UP BND1      cashProportion[1]  1
 MI BND1      cashProportion[2]
 UP BND1      cashProportion[2]  1
 BV BND1      x[1,1]  
 BV BND1      x[1,2]  
 BV BND1      x[1,3]  
 BV BND1      x[1,4]  
 BV BND1      x[1,5]  
 BV BND1      x[1,6]  
 BV BND1      x[1,7]  
 BV BND1      x[1,8]  
 BV BND1      x[1,9]  
 BV BND1      x[1,10] 
 BV BND1      x[1,11] 
 BV BND1      x[1,12] 
 BV BND1      x[1,13] 
 BV BND1      x[1,14] 
 BV BND1      x[1,15] 
 BV BND1      x[1,16] 
 BV BND1      x[2,1]  
 BV BND1      x[2,2]  
 BV BND1      x[2,3]  
 BV BND1      x[2,4]  
 BV BND1      x[2,5]  
 BV BND1      x[2,6]  
 BV BND1      x[2,7]  
 BV BND1      x[2,8]  
 BV BND1      x[2,9]  
 BV BND1      x[2,10] 
 BV BND1      x[2,11] 
 BV BND1      x[2,12] 
 BV BND1      x[2,13] 
 BV BND1      x[2,14] 
 BV BND1      x[2,15] 
 BV BND1      x[2,16] 
ENDATA
